c
p cnf 25 40
-18 -21 0
-1 -2 0
-7 9 0
-22 23 0
22 6 0
-17 11 0
-9 -21 0
14 -25 0
-11 12 0
-1 25 0
-12 18 0
-5 -8 0
4 9 0
-23 -11 0
11 -21 0
25 -20 0
15 9 0
-19 25 0
4 19 0
-9 12 0
-4 19 0
14 3 0
-20 -19 0
9 -14 0
-23 21 0
-14 9 0
-19 21 0
4 -1 0
24 -4 0
-23 -1 0
6 16 0
2 -20 0
23 -13 0
-20 -11 0
2 6 0
-10 -8 0
-23 8 0
-24 7 0
-2 6 0
-14 -22 0
